c ---- [ banner ] ------------------------------------------------------------
c
c Kissat SAT Solver
c 
c Copyright (c) 2021-2024 Armin Biere University of Freiburg
c Copyright (c) 2019-2021 Armin Biere Johannes Kepler University Linz
c 
c Version 4.0.1 43f02cf3e992cb44653b35e5cb26f93281552ae0
c gcc (Ubuntu 13.2.0-23ubuntu4) 13.2.0 -W -Wall -O3 -DNDEBUG
c Thu Sep 12 12:27:46 CEST 2024 Linux abryzen9 6.8.0-41-generic x86_64
c
c ---- [ parsing ] -----------------------------------------------------------
c
c opened and reading DIMACS file:
c
c   /data/artifact/AMulet2.0_artifact/exp4/cnf_resyn3_64/64_64_U1_WT_HCA_Multgen_resyn3.cnf
c
c parsed 'p cnf 27416 120445' header
c closing input after reading 2384390 bytes (2 MB)
c finished parsing after 0.02 seconds
c
c ---- [ options ] -----------------------------------------------------------
c
c --stable=0                       (different from default '1')
c
c ---- [ solving ] -----------------------------------------------------------
c
c  seconds switched rate     size/glue tier1  binary           remaining
c         MB reductions conflicts size  tier2     irredundant
c          level restarts redundant glue  trail           variables
c
c *  0.02 10 0 0 0  0 0   0   0 0.0 0 0 0 0 0% 12306 108137 27413 100%
c (  0.03 11 0 0 0  0 0   0   0 0.0 0 0 0 0 0% 12306 108137 27413 100%
c .  0.04 12 0 0 0  0 0   0   0 0.0 0 0 0 0 0% 12302 108137 27413 100%
c c  0.09 16 0 0 0  0 0   0   0 0.0 0 0 0 0 0% 12312 108136 27411 100%
c d  0.09 16 0 0 0  0 0   0   0 0.0 0 0 0 0 0% 12308 108136 27411 100%
c =  0.15 16 0 0 0  0 0   0   0 0.0 0 0 0 0 0% 12464 108136 27331 100%
c d  0.15 16 0 0 0  0 0   0   0 0.0 0 0 0 0 0% 12304 108136 27331 100%
c f  0.27 16 0 0 0  0 0   0   0 0.0 0 0 0 0 0% 17241 100380 30114 110%
c e  0.45 25 0 0 0  0 0   0   0 0.0 0 0 0 0 0% 11684 108503 21262 78%
c )  0.45 25 0 0 0  0 0   0   0 0.0 0 0 0 0 0% 11684 108503 21262 78%
c {  0.47 25 0 0 0  0 0   0   0 0.0 0 0 2 6 0% 11684 108503 21262 78%
c -  0.77 25 111 0 1 308 39 1001 756 2.0 9 5 3 11 19% 11786 108502 21262 78%
c -  1.04 25 261 0 2 504 52 2001 1455 3.6 18 5 2 9 20% 11863 108500 21262 78%
c d  1.21 25 250 0 2 595 49 2503 1893 3.5 18 5 3 10 22% 11873 108499 21259 78%
c u  1.24 25 250 0 2 595 49 2503 1548 3.5 18 5 3 10 22% 11883 108499 21259 78%
c v  1.27 25 250 0 2 595 49 2503 1323 3.5 18 5 3 10 22% 11883 108499 21259 78%
c w  1.29 25 250 0 2 595 49 2503 1323 3.5 18 5 3 10 22% 11883 108499 21259 78%
c x  1.32 25 250 0 2 595 49 2503 1323 3.5 18 5 3 10 22% 11885 108472 21259 78%
c =  1.41 25 250 0 2 595 49 2503 1323 3.5 18 5 3 10 22% 11887 108472 21258 78%
c d  1.42 25 250 0 2 595 49 2503 1323 3.5 18 5 3 10 22% 11883 108472 21257 78%
c
c  seconds   switched   rate       size/glue tier1     binary           remaining
c         MB  reductions conflicts       size  tier2       irredundant
c           level restarts    redundant    glue    trail           variables
c
c t  1.44 25 250 0 2 595 49 2503 1323 3.5 18 5 3 10 22% 11882 108472 21257 78%
c f  1.47 25 250 0 2 595 49 2503 1323 3.5 18 5 3 10 22% 12494 107249 21843 80%
c u  1.58 25 250 0 2 595 49 2503 1291 3.5 18 5 3 10 22% 12499 107249 21843 80%
c v  1.59 25 250 0 2 595 49 2503 1239 3.5 18 5 3 10 22% 12499 107249 21843 80%
c w  1.62 25 250 0 2 595 49 2503 1229 3.5 18 5 3 10 22% 12499 107249 21843 80%
c f  1.67 25 250 0 2 595 49 2503 1229 3.5 18 5 3 10 22% 12524 107211 21856 80%
c -  1.94 29 246 0 3 717 46 3415 1706 4.0 21 5 3 9 23% 12582 107211 21856 80%
c -  2.55 29 268 0 4 1045 44 5147 2959 3.8 21 6 3 10 23% 12619 107210 21856 80%
c -  3.03 29 252 0 5 1233 39 7148 3947 3.6 20 6 2 9 23% 12721 107208 21856 80%
c d  3.24 29 244 0 5 1307 39 7709 4234 3.7 21 6 2 9 23% 12651 107208 21804 80%
c u  3.28 29 244 0 5 1307 39 7709 3787 3.7 21 6 2 9 23% 12672 107208 21804 80%
c v  3.32 29 244 0 5 1307 39 7709 3217 3.7 21 6 2 9 23% 12673 107208 21804 80%
c w  3.38 29 244 0 5 1307 39 7709 3215 3.7 21 6 2 9 23% 12673 107208 21804 80%
c x  3.42 29 244 0 5 1307 39 7709 3215 3.7 21 6 2 9 23% 12674 107150 21804 80%
c =  3.59 29 244 0 5 1307 39 7709 3215 3.7 21 6 2 9 23% 13274 107150 21504 78%
c d  3.60 29 244 0 5 1307 39 7709 3209 3.7 21 6 2 9 23% 12616 107150 21502 78%
c t  3.62 29 244 0 5 1307 39 7709 3209 3.7 21 6 2 9 23% 12607 107150 21502 78%
c f  3.67 29 244 0 5 1307 39 7709 3209 3.7 21 6 2 9 23% 13966 105098 22181 81%
c u  3.71 29 244 0 5 1307 39 7709 3118 3.7 21 6 2 9 23% 13967 105098 22181 81%
c v  3.74 29 244 0 5 1307 39 7709 3035 3.7 21 6 2 9 23% 13967 105098 22181 81%
c
c  seconds   switched    rate       size/glue tier1    binary           remaining
c         MB  reductions  conflicts       size  tier2      irredundant
c           level  restarts    redundant    glue   trail           variables
c
c w  3.80 29 244 0 5 1307 39 7709 3028 3.7 21 6 2 9 23% 13967 105098 22181 81%
c =  3.94 29 244 0 5 1307 39 7709 3028 3.7 21 6 2 9 23% 14389 105098 21970 80%
c d  3.95 29 244 0 5 1307 39 7709 3028 3.7 21 6 2 9 23% 13777 105098 21969 80%
c t  3.97 29 244 0 5 1307 39 7709 3028 3.7 21 6 2 9 23% 13725 105098 21969 80%
c f  4.03 29 244 0 5 1307 39 7709 3028 3.7 21 6 2 9 23% 16402 101084 23306 85%
c -  4.60 29 275 0 6 1517 39 9384 3913 3.8 22 6 2 9 24% 16497 101079 23306 85%
c o  4.77 29 294 0 6 1582 39 10125 4555 3.8 22 6 2 9 24% 16528 101079 23306 85%
c -  5.40 29 287 0 7 1824 38 11833 5271 3.9 23 6 2 8 24% 16594 101072 23306 85%
c s  5.73 29 294 0 7 1929 39 12517 5906 3.9 24 6 2 8 24% 16610 98701 23306 85%
c e  5.86 29 294 0 7 1929 39 12517 5906 3.9 24 6 2 8 24% 15869 99296 22635 83%
c 2  5.86 29 294 0 7 1929 39 12517 5906 3.9 24 6 2 8 24% 15868 99296 22635 83%
c s  5.87 29 294 0 7 1929 39 12517 5906 3.9 24 6 2 8 24% 15877 99096 22635 83%
c e  5.88 29 294 0 7 1929 39 12517 5906 3.9 24 6 2 8 24% 15821 99140 22603 82%
c ^  5.88 29 294 0 7 1929 39 12517 5906 3.9 24 6 2 8 24% 15821 99140 22603 82%
c -  6.47 29 315 0 8 2114 38 14478 6255 3.9 25 6 2 8 25% 15925 99140 22603 82%
c c  6.79 29 325 0 8 2203 37 15792 7389 3.9 24 6 2 8 25% 15998 99044 22578 82%
c d  6.79 29 325 0 8 2203 37 15792 7357 3.9 24 6 2 8 25% 15609 99044 22377 82%
c u  6.84 29 325 0 8 2203 37 15792 6292 3.9 24 6 2 8 25% 15618 99044 22377 82%
c v  6.90 29 325 0 8 2203 37 15792 5411 3.9 24 6 2 8 25% 15618 99044 22377 82%
c w  6.99 29 325 0 8 2203 37 15792 5385 3.9 24 6 2 8 25% 15618 99044 22377 82%
c
c  seconds   switched    rate        size/glue tier1    binary          remaining
c         MB  reductions   conflicts       size  tier2      irredundant
c           level  restarts     redundant    glue   trail          variables
c
c =  7.21 29 325 0 8 2203 37 15792 5385 3.9 24 6 2 8 25% 16144 99044 22114 81%
c d  7.23 29 325 0 8 2203 37 15792 5361 3.9 24 6 2 8 25% 15476 99044 22114 81%
c t  7.25 29 325 0 8 2203 37 15792 5361 3.9 24 6 2 8 25% 15414 99044 22114 81%
c f  7.30 29 325 0 8 2203 37 15792 5361 3.9 24 6 2 8 25% 15422 98995 22134 81%
c b  7.33 29 325 0 8 2203 37 15792 5361 3.9 24 6 2 8 25% 15422 98995 22133 81%
c u  7.36 29 325 0 8 2203 37 15792 5171 3.9 24 6 2 8 25% 15424 98995 22133 81%
c v  7.40 29 325 0 8 2203 37 15792 5061 3.9 24 6 2 8 25% 15424 98995 22133 81%
c w  7.48 29 325 0 8 2203 37 15792 5042 3.9 24 6 2 8 25% 15424 98995 22133 81%
c x  7.54 29 325 0 8 2203 37 15792 5042 3.9 24 6 2 8 25% 15430 98661 22133 81%
c =  7.78 29 325 0 8 2203 37 15792 5042 3.9 24 6 2 8 25% 17158 98661 21269 78%
c d  7.79 29 325 0 8 2203 37 15792 5013 3.9 24 6 2 8 25% 14619 98661 21269 78%
c t  7.81 29 325 0 8 2203 37 15792 5013 3.9 24 6 2 8 25% 14605 98661 21269 78%
c f  7.84 29 325 0 8 2203 37 15792 5013 3.9 24 6 2 8 25% 14608 98651 21271 78%
c -  8.51 29 321 0 9 2426 38 17306 5611 4.0 26 6 2 8 25% 14676 98651 21271 78%
c -  9.51 29 321 0 10 2726 37 20307 7202 3.9 26 7 2 8 25% 14853 98642 21271 78%
c o  9.54 29 318 0 10 2727 37 20532 7352 3.9 26 7 2 8 25% 14871 98642 21271 78%
c - 10.19 29 310 0 11 2946 35 23469 8607 3.9 26 7 2 8 25% 14973 98640 21271 78%
c s 10.68 29 307 0 11 3109 35 25025 9874 4.0 27 7 2 8 25% 15037 96471 21271 78%
c e 10.81 29 307 0 11 3109 35 25025 9874 4.0 27 7 2 8 25% 11910 100972 19508 71%
c 2 10.81 29 307 0 11 3109 35 25025 9874 4.0 27 7 2 8 25% 11908 100972 19508 71%
c
c  seconds   switched     rate        size/glue tier1    binary           remaining
c         MB   reductions   conflicts       size  tier2      irredundant
c           level   restarts     redundant    glue   trail           variables
c
c s 10.83 29 307 0 11 3109 35 25025 9874 4.0 27 7 2 8 25% 11923 100601 19508 71%
c e 10.84 29 307 0 11 3109 35 25025 9874 4.0 27 7 2 8 25% 11905 100621 19495 71%
c ^ 10.84 29 307 0 11 3109 35 25025 9874 4.0 27 7 2 8 25% 11905 100621 19495 71%
c - 11.20 29 305 0 12 3242 35 26786 8761 4.0 27 7 2 7 25% 11975 100620 19495 71%
c c 11.25 29 306 0 12 3242 35 26924 8885 4.0 27 7 2 7 25% 12058 100276 19438 71%
c d 11.25 29 306 0 12 3242 35 26924 8815 4.0 27 7 2 7 25% 11563 100276 19212 70%
c u 11.28 29 306 0 12 3242 35 26924 7480 4.0 27 7 2 7 25% 11582 100276 19212 70%
c v 11.31 29 306 0 12 3242 35 26924 6679 4.0 27 7 2 7 25% 11586 100276 19212 70%
c w 11.31 29 306 0 12 3242 35 26924 6675 4.0 27 7 2 7 25% 11586 100276 19212 70%
c = 11.52 29 306 0 12 3242 35 26924 6675 4.0 27 7 2 7 25% 15626 100276 17192 63%
c d 11.53 29 306 0 12 3242 35 26924 6553 4.0 27 7 2 7 25% 11516 100276 17190 63%
c t 11.54 29 306 0 12 3242 35 26924 6553 4.0 27 7 2 7 25% 11388 100276 17190 63%
c f 11.60 29 306 0 12 3242 35 26924 6553 4.0 27 7 2 7 25% 11438 100096 17222 63%
c c 11.64 29 306 0 12 3242 35 26924 6552 4.0 27 7 2 7 25% 11450 100048 17216 63%
c d 11.65 29 306 0 12 3242 35 26924 6552 4.0 27 7 2 7 25% 11438 100048 17216 63%
c u 11.67 29 306 0 12 3242 35 26924 6121 4.0 27 7 2 7 25% 11440 100048 17216 63%
c v 11.69 29 306 0 12 3242 35 26924 5991 4.0 27 7 2 7 25% 11440 100048 17216 63%
c w 11.70 29 306 0 12 3242 35 26924 5990 4.0 27 7 2 7 25% 11440 100048 17216 63%
c x 11.78 29 306 0 12 3242 35 26924 5988 4.0 27 7 2 7 25% 11516 90917 17216 63%
c = 11.99 29 306 0 12 3242 35 26924 5988 4.0 27 7 2 7 25% 15314 90893 15316 56%
c
c  seconds   switched     rate        size/glue tier1    binary          remaining
c         MB   reductions   conflicts       size  tier2      irredundant
c           level   restarts     redundant    glue   trail          variables
c
c d 12.00 29 306 0 12 3242 35 26924 5848 4.0 27 7 2 7 25% 11443 90889 15316 56%
c t 12.01 29 306 0 12 3242 35 26924 5848 4.0 27 7 2 7 25% 11142 90889 15316 56%
c f 12.04 29 306 0 12 3242 35 26924 5848 4.0 27 7 2 7 25% 11190 90638 15380 56%
c - 12.52 29 297 0 13 3547 34 30250 7929 3.9 27 7 2 7 25% 11256 90634 15380 56%
c - 13.02 29 285 0 14 3854 33 33855 9941 3.8 27 7 2 7 25% 11329 90631 15380 56%
c - 13.48 29 273 0 15 4120 32 37596 11764 3.8 27 7 2 6 25% 11401 90629 15380 56%
c o 14.06 29 264 0 15 4493 31 40547 14441 3.7 27 7 2 6 26% 11449 90628 15380 56%
c d 14.30 29 262 0 15 4633 31 41251 14961 3.7 28 8 2 6 26% 11348 90628 15326 56%
c u 14.35 29 262 0 15 4633 31 41251 12680 3.7 28 8 2 6 26% 11366 90628 15326 56%
c v 14.41 29 262 0 15 4633 31 41251 11345 3.7 28 8 2 6 26% 11370 90628 15326 56%
c w 14.45 29 262 0 15 4633 31 41251 11345 3.7 28 8 2 6 26% 11370 90628 15326 56%
c x 14.51 29 262 0 15 4633 31 41251 11345 3.7 28 8 2 6 26% 11370 79493 15326 56%
c = 14.71 29 262 0 15 4633 31 41251 11345 3.7 28 8 2 6 26% 11408 79493 15307 56%
c d 14.71 29 262 0 15 4633 31 41251 11341 3.7 28 8 2 6 26% 11360 79493 15302 56%
c t 14.73 29 262 0 15 4633 31 41251 11341 3.7 28 8 2 6 26% 11329 79493 15302 56%
c f 14.74 29 262 0 15 4633 31 41251 11341 3.7 28 8 2 6 26% 11331 79485 15304 56%
c c 14.78 29 262 0 15 4633 31 41251 11301 3.7 28 8 2 6 26% 11388 79256 15275 56%
c d 14.78 29 262 0 15 4633 31 41251 11301 3.7 28 8 2 6 26% 11330 79256 15275 56%
c u 14.82 29 262 0 15 4633 31 41251 10751 3.7 28 8 2 6 26% 11332 79256 15275 56%
c v 14.86 29 262 0 15 4633 31 41251 10405 3.7 28 8 2 6 26% 11333 79256 15275 56%
c
c  seconds   switched     rate         size/glue tier1    binary          remaining
c         MB   reductions   conflicts        size  tier2      irredundant
c           level   restarts      redundant    glue   trail          variables
c
c w 14.96 29 262 0 15 4633 31 41251 10399 3.7 28 8 2 6 26% 11333 79256 15275 56%
c x 15.02 29 262 0 15 4633 31 41251 10399 3.7 28 8 2 6 26% 11334 74376 15275 56%
c = 15.22 29 262 0 15 4633 31 41251 10399 3.7 28 8 2 6 26% 11858 74376 15013 55%
c d 15.22 29 262 0 15 4633 31 41251 10350 3.7 28 8 2 6 26% 11324 74376 15012 55%
c t 15.24 29 262 0 15 4633 31 41251 10350 3.7 28 8 2 6 26% 11314 74376 15012 55%
c - 15.30 29 262 0 16 4670 32 41470 9175 3.7 28 8 2 6 26% 11315 74376 15012 55%
c - 15.78 29 260 0 17 4970 31 45470 11160 3.8 28 7 2 6 26% 11409 74376 15012 55%
c - 16.34 29 255 0 18 5303 30 49594 12094 3.8 28 7 1 6 26% 11465 74373 15012 55%
c s 16.64 29 254 0 18 5471 30 52138 14387 3.7 28 7 1 6 26% 11497 71404 15012 55%
c e 16.71 29 254 0 18 5471 30 52138 14387 3.7 28 7 1 6 26% 10760 72541 14497 53%
c 2 16.71 29 254 0 18 5471 30 52138 14387 3.7 28 7 1 6 26% 10752 72541 14497 53%
c s 16.71 29 254 0 18 5471 30 52138 14387 3.7 28 7 1 6 26% 10763 72092 14497 53%
c e 16.72 29 254 0 18 5471 30 52138 14387 3.7 28 7 1 6 26% 10745 72120 14483 53%
c ^ 16.72 29 254 0 18 5471 30 52138 14387 3.7 28 7 1 6 26% 10745 72120 14483 53%
c - 17.09 29 251 0 19 5735 30 53837 12263 3.7 28 8 1 6 26% 10773 72120 14483 53%
c i 17.36 29 246 0 19 5908 29 57858 15656 3.7 28 7 1 6 25% 10899 72118 14482 53%
c - 17.40 29 247 0 20 5935 29 58197 13274 3.7 28 7 1 5 26% 10898 72118 14482 53%
c c 17.58 29 246 0 20 6042 29 58892 13948 3.7 28 8 1 5 26% 11014 71445 14377 52%
c d 17.58 29 246 0 20 6042 29 58892 13693 3.7 28 8 1 5 26% 10806 71443 14377 52%
c d 17.58 29 246 0 20 6042 29 58892 13693 3.7 28 8 1 5 26% 10804 71443 14376 52%
c
c  seconds   switched     rate         size/glue tier1    binary          remaining
c         MB   reductions   conflicts        size  tier2      irredundant
c           level   restarts      redundant    glue   trail          variables
c
c u 17.61 29 246 0 20 6042 29 58892 12112 3.7 28 8 1 5 26% 10817 71443 14376 52%
c v 17.66 29 246 0 20 6042 29 58892 10223 3.7 28 8 1 5 26% 10834 71443 14376 52%
c w 17.72 29 246 0 20 6042 29 58892 10028 3.7 28 8 1 5 26% 10835 71443 14376 52%
c x 17.78 29 246 0 20 6042 29 58892 10028 3.7 28 8 1 5 26% 10837 71156 14376 52%
c = 18.01 29 246 0 20 6042 29 58892 10028 3.7 28 8 1 5 26% 11553 71156 14017 51%
c d 18.01 29 246 0 20 6042 29 58892 9884 3.7 28 8 1 5 26% 10778 71141 14007 51%
c t 18.02 29 246 0 20 6042 29 58892 9884 3.7 28 8 1 5 26% 10641 71141 14007 51%
c f 18.04 29 246 0 20 6042 29 58892 9884 3.7 28 8 1 5 26% 10655 70964 14036 51%
c c 18.08 29 246 0 20 6042 29 58892 9832 3.7 28 8 1 5 26% 10674 70899 14026 51%
c d 18.08 29 246 0 20 6042 29 58892 9832 3.7 28 8 1 5 26% 10654 70899 14026 51%
c u 18.11 29 246 0 20 6042 29 58892 9360 3.7 28 8 1 5 26% 10660 70899 14026 51%
c v 18.14 29 246 0 20 6042 29 58892 8851 3.7 28 8 1 5 26% 10660 70899 14026 51%
c w 18.19 29 246 0 20 6042 29 58892 8797 3.7 28 8 1 5 26% 10660 70899 14026 51%
c x 18.27 29 246 0 20 6042 29 58892 8790 3.7 28 8 1 5 26% 10701 68202 14026 51%
c d 18.31 29 246 0 20 6042 29 58892 8790 3.7 28 8 1 5 26% 10699 68202 14025 51%
c t 18.32 29 246 0 20 6042 29 58892 8790 3.7 28 8 1 5 26% 10673 68202 14025 51%
c - 18.75 29 243 0 21 6329 28 62670 10058 3.7 28 8 1 5 26% 10727 68202 14025 51%
c - 19.20 29 238 0 22 6634 27 67252 12036 3.6 27 8 1 5 25% 10805 68202 14025 51%
c o 19.52 29 232 0 22 6867 26 71279 15318 3.6 27 7 1 5 25% 10905 68200 14025 51%
c - 19.64 29 231 0 23 6966 26 71942 13354 3.6 27 8 1 5 25% 10914 68200 14025 51%
c
c  seconds   switched     rate         size/glue tier1    binary          remaining
c         MB   reductions   conflicts        size  tier2      irredundant
c           level   restarts      redundant    glue   trail          variables
c
c i 20.13 29 226 0 23 7295 26 76184 17179 3.5 26 8 1 5 25% 10988 68200 14024 51%
c - 20.19 29 225 0 24 7340 26 76737 14726 3.5 26 8 1 5 25% 11000 68200 14024 51%
c i 20.35 29 224 0 24 7446 26 77834 15730 3.5 26 8 1 5 25% 11025 68200 14023 51%
c d 20.61 29 224 0 24 7645 26 79983 17176 3.5 27 8 1 5 25% 10813 68180 13897 51%
c d 20.62 29 224 0 24 7645 26 79983 17173 3.5 27 8 1 5 25% 10804 68180 13893 51%
c u 20.65 29 224 0 24 7645 26 79983 15234 3.5 27 8 1 5 25% 10844 68180 13893 51%
c v 20.71 29 224 0 24 7645 26 79983 12854 3.5 27 8 1 5 25% 10863 68180 13893 51%
c w 20.78 29 224 0 24 7645 26 79983 12854 3.5 27 8 1 5 25% 10863 68180 13893 51%
c x 20.84 29 224 0 24 7645 26 79983 12847 3.5 27 8 1 5 25% 10870 67173 13893 51%
c d 20.84 29 224 0 24 7645 26 79983 12819 3.5 27 8 1 5 25% 10842 67173 13879 51%
c t 20.86 29 224 0 24 7645 26 79983 12819 3.5 27 8 1 5 25% 10782 67173 13879 51%
c f 20.86 29 224 0 24 7645 26 79983 12819 3.5 27 8 1 5 25% 10783 67149 13883 51%
c c 20.90 29 224 0 24 7645 26 79983 12757 3.5 27 8 1 5 25% 10813 67006 13866 51%
c d 20.90 29 224 0 24 7645 26 79983 12757 3.5 27 8 1 5 25% 10779 67006 13866 51%
c u 20.94 29 224 0 24 7645 26 79983 12245 3.5 27 8 1 5 25% 10784 67006 13866 51%
c v 20.97 29 224 0 24 7645 26 79983 11724 3.5 27 8 1 5 25% 10789 67006 13866 51%
c w 21.06 29 224 0 24 7645 26 79983 11664 3.5 27 8 1 5 25% 10789 67006 13866 51%
c x 21.12 29 224 0 24 7645 26 79983 11664 3.5 27 8 1 5 25% 10790 66899 13866 51%
c = 21.43 29 224 0 24 7645 26 79983 11664 3.5 27 8 1 5 25% 11210 66814 13645 50%
c d 21.44 29 224 0 24 7645 26 79983 11366 3.5 27 8 1 5 25% 10734 66814 13644 50%
c
c  seconds   switched     rate         size/glue tier1    binary          remaining
c         MB   reductions   conflicts        size  tier2      irredundant
c           level   restarts      redundant    glue   trail          variables
c
c t 21.45 29 224 0 24 7645 26 79983 11366 3.5 27 8 1 5 25% 10556 66814 13644 50%
c f 21.46 29 224 0 24 7645 26 79983 11366 3.5 27 8 1 5 25% 10552 66799 13647 50%
c - 21.66 29 223 0 25 7792 25 81635 11010 3.5 26 8 1 5 25% 10550 66799 13647 50%
c i 21.79 29 221 0 25 7892 25 83769 12862 3.5 26 8 1 5 26% 10592 66798 13644 50%
c i 21.89 29 218 0 25 7964 25 85148 14017 3.5 26 7 1 5 26% 10619 66798 13643 50%
c - 22.03 29 216 0 26 8073 25 86636 12922 3.5 26 7 1 5 25% 10644 66798 13643 50%
c i 22.05 29 216 0 26 8078 25 86912 13154 3.5 26 7 1 5 25% 10650 66798 13642 50%
c i 22.07 29 213 0 26 8088 24 88317 14204 3.5 26 7 1 5 25% 10717 66798 13641 50%
c i 22.53 29 211 0 26 8488 25 90513 16264 3.5 26 8 1 5 25% 10735 66798 13640 50%
c - 22.63 29 210 0 27 8539 24 91736 14688 3.5 26 8 1 5 25% 10729 66798 13640 50%
c i 22.83 29 208 0 27 8695 24 93359 16192 3.5 26 8 1 5 25% 10747 66798 13639 50%
c i 22.89 29 206 0 27 8737 24 94299 16972 3.4 26 7 1 5 25% 10782 66798 13638 50%
c i 22.89 29 206 0 27 8737 24 94311 16976 3.4 26 7 1 5 25% 10785 66798 13635 50%
c i 22.89 29 206 0 27 8737 24 94474 17082 3.4 26 7 1 5 26% 10794 66798 13633 50%
c i 22.93 29 206 0 27 8760 24 94864 17455 3.4 26 7 1 5 26% 10796 66798 13631 50%
c i 22.93 29 206 0 27 8760 24 94872 17456 3.4 26 7 1 5 26% 10798 66798 13630 50%
c s 23.08 29 204 0 27 8851 24 95841 18397 3.4 26 7 1 5 26% 10800 66162 13630 50%
c e 23.16 29 204 0 27 8851 24 95841 18397 3.4 26 7 1 5 26% 7209 74142 11831 43%
c 2 23.16 29 204 0 27 8851 24 95841 18397 3.4 26 7 1 5 26% 7196 74142 11831 43%
c s 23.17 29 204 0 27 8851 24 95841 18397 3.4 26 7 1 5 26% 7235 73395 11831 43%
c
c  seconds   switched     rate         size/glue tier1    binary         remaining
c         MB   reductions   conflicts        size  tier2     irredundant
c           level   restarts      redundant    glue   trail         variables
c
c e 23.18 29 204 0 27 8851 24 95841 18397 3.4 26 7 1 5 26% 7140 73501 11789 43%
c ^ 23.18 29 204 0 27 8851 24 95841 18397 3.4 26 7 1 5 26% 7140 73501 11789 43%
c i 23.20 29 203 0 27 8868 24 96493 12492 3.4 25 7 1 5 26% 7171 73499 11788 43%
c - 23.21 29 202 0 28 8869 24 96932 11194 3.4 25 7 1 5 25% 7182 73480 11788 43%
c i 23.24 29 201 0 28 8873 23 97648 11865 3.4 25 7 1 5 25% 7185 73480 11786 43%
c i 23.29 29 199 0 28 8905 23 98501 12655 3.4 25 7 1 5 25% 7195 73480 11785 43%
c i 23.32 29 198 0 28 8921 23 98799 12935 3.4 25 7 1 5 25% 7197 73480 11784 43%
c i 23.45 29 196 0 28 9028 23 100488 14495 3.4 25 7 1 5 25% 7210 73479 11782 43%
c i 23.48 29 195 0 28 9043 23 101031 14980 3.3 25 7 1 5 25% 7217 73479 11781 43%
c i 23.55 29 193 0 28 9100 22 102071 15892 3.3 25 7 1 5 25% 7234 73479 11780 43%
c - 23.56 29 193 0 29 9101 22 102225 13331 3.3 25 7 1 5 25% 7211 73479 11780 43%
c i 23.57 29 193 0 29 9107 22 102311 13405 3.3 25 7 1 5 25% 7212 73479 11778 43%
c i 23.58 29 192 0 29 9119 22 102566 13623 3.3 25 7 1 5 25% 7222 73479 11776 43%
c i 23.60 29 191 0 29 9141 22 103023 14039 3.3 24 7 1 5 25% 7229 73479 11775 43%
c i 23.63 29 191 0 29 9193 22 103402 14385 3.3 24 7 1 5 25% 7237 73479 11774 43%
c c 23.74 29 189 0 29 9333 22 104639 15543 3.3 24 7 1 5 25% 7254 73209 11751 43%
c d 23.74 29 189 0 29 9333 22 104639 15292 3.3 24 7 1 5 25% 7247 73172 11751 43%
c d 23.75 29 189 0 29 9333 22 104639 15253 3.3 24 7 1 5 25% 7207 73159 11731 43%
c u 23.78 29 189 0 29 9333 22 104639 13559 3.3 24 7 1 5 25% 7234 73159 11731 43%
c v 23.83 29 189 0 29 9333 22 104639 11449 3.3 24 7 1 5 25% 7250 73159 11731 43%
c
c  seconds   switched     rate          size/glue tier1    binary         remaining
c         MB   reductions   conflicts         size  tier2     irredundant
c           level   restarts       redundant    glue   trail         variables
c
c w 23.90 29 189 0 29 9333 22 104639 11172 3.3 24 7 1 5 25% 7250 73159 11731 43%
c = 24.20 29 189 0 29 9333 22 104639 11172 3.3 24 7 1 5 25% 7474 73091 11614 42%
c d 24.21 29 189 0 29 9333 22 104639 11031 3.3 24 7 1 5 25% 7217 73091 11614 42%
c t 24.21 29 189 0 29 9333 22 104639 11031 3.3 24 7 1 5 25% 6968 73091 11614 42%
c f 24.26 29 189 0 29 9333 22 104639 11031 3.3 24 7 1 5 25% 6971 73026 11620 42%
c u 24.32 29 189 0 29 9333 22 104639 10578 3.3 24 7 1 5 25% 6981 73026 11620 42%
c v 24.35 29 189 0 29 9333 22 104639 10142 3.3 24 7 1 5 25% 6985 73026 11620 42%
c w 24.41 29 189 0 29 9333 22 104639 10034 3.3 24 7 1 5 25% 6985 73026 11620 42%
c x 24.46 29 189 0 29 9333 22 104639 10034 3.3 24 7 1 5 25% 6993 72806 11620 42%
c = 24.75 29 189 0 29 9333 22 104639 10034 3.3 24 7 1 5 25% 6999 72796 11616 42%
c d 24.76 29 189 0 29 9333 22 104639 10034 3.3 24 7 1 5 25% 6993 72796 11616 42%
c t 24.77 29 189 0 29 9333 22 104639 10034 3.3 24 7 1 5 25% 6976 72796 11616 42%
c i 24.78 29 188 0 29 9344 22 104893 10257 3.3 24 7 1 5 25% 6979 72792 11615 42%
c i 24.79 29 188 0 29 9350 22 104939 10292 3.3 24 7 1 5 25% 6982 72790 11613 42%
c i 24.79 29 188 0 29 9350 22 105098 10398 3.3 24 7 1 5 25% 6992 72790 11611 42%
c i 24.79 29 188 0 29 9350 22 105100 10399 3.3 24 7 1 5 25% 6992 72790 11610 42%
c i 24.79 29 187 0 29 9350 22 105137 10425 3.3 24 7 1 5 24% 6997 72790 11607 42%
c i 24.79 29 187 0 29 9350 22 105146 10427 3.3 24 7 1 5 24% 7000 72790 11603 42%
c i 24.79 29 187 0 29 9350 22 105148 10427 3.3 24 7 1 5 24% 7001 72790 11599 42%
c } 24.79 29 187 0 29 9350 22 105152 10428 3.3 24 7 1 5 24% 7002 72790 11589 42%
c
c  seconds   switched     rate          size/glue tier1    binary         remaining
c         MB   reductions   conflicts         size  tier2     irredundant
c           level   restarts       redundant    glue   trail         variables
c
c 0 24.79 29 187 0 29 9350 22 105152 10428 3.3 24 7 1 5 24% 7002 72790 11589 42%
c
c ---- [ result ] ------------------------------------------------------------
c
s UNSATISFIABLE
c
c ---- [ profiling ] ---------------------------------------------------------
c
c          16.83   67.86 %  search
c          16.83   67.86 %  focused
c           7.49   30.22 %  simplify
c           7.14   28.81 %  probe
c           2.89   11.67 %  sweep
c           2.55   10.27 %  vivify
c           0.61    2.47 %  factor
c           0.59    2.36 %  eliminate
c           0.47    1.88 %  congruence
c           0.44    1.79 %  substitute
c           0.42    1.69 %  preprocess
c           0.18    0.72 %  fastel
c           0.15    0.61 %  reduce
c           0.12    0.47 %  transitive
c           0.10    0.41 %  subsume
c           0.06    0.25 %  backbone
c           0.04    0.14 %  lucky
c           0.02    0.08 %  parse
c =============================================
c          24.79  100.00 %  total
c
c ---- [ statistics ] --------------------------------------------------------
c
c chronological:                         5083                5 %  conflicts
c conflicts:                           105152             4241.10 per second
c congruent:                              274                1 %  variables
c decisions:                          2410801               22.93 per conflict
c eliminated:                           13701               50 %  variables
c factored:                              5560               20 %  variables
c fast_eliminated:                       8852               65 %  eliminated
c fast_strengthened:                       53                6 %  per strengthened
c fast_subsumed:                           40                0 %  per subsumed
c iterations:                              33                0 %  variables
c propagations:                     105076800          4238071    per second
c reductions:                              29             3626    interval
c reordered:                                4            26288    interval
c restarts:                              9350               11    interval
c strengthened:                           865                0 %  checks
c substituted:                           7599               28 %  variables
c subsumed:                              9772                0 %  checks
c switched:                                 0                0    interval
c vivified:                             65359               15 %  checks
c
c ---- [ glue usage ] --------------------------------------------------------
c
c focused glue 1 used 148043 clauses 57.27% accumulated 57.27% tier1
c focused glue 2 used  53857 clauses 20.83% accumulated 78.10%
c focused glue 3 used  15880 clauses  6.14% accumulated 84.24%
c focused glue 4 used   9978 clauses  3.86% accumulated 88.10%
c focused glue 5 used   6520 clauses  2.52% accumulated 90.62% tier2
c
c ---- [ resources ] ---------------------------------------------------------
c
c maximum-resident-set-size:         30035968 bytes         29 MB
c process-time:                            25s              24.79 seconds
c
c ---- [ shutting down ] -----------------------------------------------------
c
c exit 20
